sat
(
  (define-fun inv ((x!0 Int) (x!1 Int) (x!2 Int)) Bool
    (let ((a!1 (not (<= (+ (* 25 x!0) x!2) (- 301))))
          (a!2 (not (<= (+ x!0 (* (- 1) x!1)) (- 25))))
          (a!3 (not (>= (+ x!0 (* (- 1) x!1)) (- 1))))
          (a!4 (not (>= (+ x!0 (* (- 1) x!1)) (- 25))))
          (a!5 (not (<= (+ x!0 (* (- 1) x!1)) (- 24))))
          (a!6 (not (<= (+ (* 24 x!0) x!2) (- 277))))
          (a!7 (not (<= (+ x!0 (* (- 1) x!1)) (- 23))))
          (a!8 (not (<= (+ (* 23 x!0) x!2) (- 254))))
          (a!9 (not (>= (+ x!0 (* (- 1) x!1)) (- 24))))
          (a!10 (not (<= (+ (* 22 x!0) x!2) (- 232))))
          (a!11 (not (<= (+ x!0 (* (- 1) x!1)) (- 22))))
          (a!12 (not (>= (+ x!0 (* (- 1) x!1)) (- 23))))
          (a!13 (not (<= (+ x!0 (* (- 1) x!1)) (- 21))))
          (a!14 (not (>= (+ x!0 (* (- 1) x!1)) (- 22))))
          (a!15 (not (<= (+ (* 21 x!0) x!2) (- 211))))
          (a!16 (not (<= (+ x!0 (* (- 1) x!1)) (- 20))))
          (a!17 (not (<= (+ (* 20 x!0) x!2) (- 191))))
          (a!18 (not (>= (+ x!0 (* (- 1) x!1)) (- 21))))
          (a!19 (not (>= (+ x!0 (* (- 1) x!1)) (- 20))))
          (a!20 (not (<= (+ (* 19 x!0) x!2) (- 172))))
          (a!21 (not (<= (+ x!0 (* (- 1) x!1)) (- 19))))
          (a!22 (not (<= (+ x!0 (* (- 1) x!1)) (- 18))))
          (a!23 (not (>= (+ x!0 (* (- 1) x!1)) (- 19))))
          (a!24 (not (<= (+ (* 18 x!0) x!2) (- 154))))
          (a!25 (not (<= (+ x!0 (* (- 1) x!1)) (- 17))))
          (a!26 (not (<= (+ (* 17 x!0) x!2) (- 137))))
          (a!27 (not (>= (+ x!0 (* (- 1) x!1)) (- 18))))
          (a!28 (not (<= (+ (* 16 x!0) x!2) (- 121))))
          (a!29 (not (<= (+ x!0 (* (- 1) x!1)) (- 16))))
          (a!30 (not (>= (+ x!0 (* (- 1) x!1)) (- 17))))
          (a!31 (not (<= (+ x!0 (* (- 1) x!1)) (- 15))))
          (a!32 (not (>= (+ x!0 (* (- 1) x!1)) (- 16))))
          (a!33 (not (<= (+ (* 15 x!0) x!2) (- 106))))
          (a!34 (not (<= (+ x!0 (* (- 1) x!1)) (- 14))))
          (a!35 (not (<= (+ (* 14 x!0) x!2) (- 92))))
          (a!36 (not (>= (+ x!0 (* (- 1) x!1)) (- 15))))
          (a!37 (not (>= (+ x!0 (* (- 1) x!1)) (- 14))))
          (a!38 (not (<= (+ (* 13 x!0) x!2) (- 79))))
          (a!39 (not (<= (+ x!0 (* (- 1) x!1)) (- 13))))
          (a!40 (not (<= (+ x!0 (* (- 1) x!1)) (- 12))))
          (a!41 (not (>= (+ x!0 (* (- 1) x!1)) (- 13))))
          (a!42 (not (<= (+ (* 12 x!0) x!2) (- 67))))
          (a!43 (not (>= (+ x!0 (* (- 1) x!1)) (- 12))))
          (a!44 (not (<= (+ x!0 (* (- 1) x!1)) (- 11))))
          (a!45 (not (<= (+ (* 11 x!0) x!2) (- 56))))
          (a!46 (not (<= (+ (* 10 x!0) x!2) (- 46))))
          (a!47 (not (<= (+ x!0 (* (- 1) x!1)) (- 10))))
          (a!48 (not (>= (+ x!0 (* (- 1) x!1)) (- 11))))
          (a!49 (not (<= (+ (* 9 x!0) x!2) (- 37))))
          (a!50 (not (<= (+ x!0 (* (- 1) x!1)) (- 9))))
          (a!51 (not (>= (+ x!0 (* (- 1) x!1)) (- 10))))
          (a!52 (not (>= (+ x!0 (* (- 1) x!1)) (- 9))))
          (a!53 (not (<= (+ x!0 (* (- 1) x!1)) (- 8))))
          (a!54 (not (<= (+ (* 8 x!0) x!2) (- 29))))
          (a!55 (not (>= (+ x!0 (* (- 1) x!1)) (- 8))))
          (a!56 (not (<= (+ x!0 (* (- 1) x!1)) (- 7))))
          (a!57 (not (<= (+ (* 7 x!0) x!2) (- 22))))
          (a!58 (not (<= (+ x!0 (* (- 1) x!1)) (- 6))))
          (a!59 (not (<= (+ (* 6 x!0) x!2) (- 16))))
          (a!60 (not (>= (+ x!0 (* (- 1) x!1)) (- 7))))
          (a!61 (not (>= (+ x!0 (* (- 1) x!1)) (- 6))))
          (a!62 (not (<= (+ x!0 (* (- 1) x!1)) (- 5))))
          (a!63 (not (<= (+ (* 5 x!0) x!2) (- 11))))
          (a!64 (not (>= (+ x!0 (* (- 1) x!1)) (- 5))))
          (a!65 (not (<= (+ (* 4 x!0) x!2) (- 7))))
          (a!66 (not (<= (+ x!0 (* (- 1) x!1)) (- 4))))
          (a!67 (not (<= (+ x!0 (* (- 1) x!1)) (- 3))))
          (a!68 (not (>= (+ x!0 (* (- 1) x!1)) (- 4))))
          (a!69 (not (<= (+ (* 3 x!0) x!2) (- 4))))
          (a!70 (not (>= (+ x!0 (* (- 1) x!1)) (- 3))))
          (a!71 (not (<= (+ (* 2 x!0) x!2) (- 2))))
          (a!72 (not (<= (+ x!0 (* (- 1) x!1)) (- 2))))
          (a!73 (not (>= (+ x!0 (* (- 1) x!1)) (- 2))))
          (a!74 (not (<= (+ x!0 (* (- 1) x!1)) (- 1))))
          (a!76 (not (<= (+ (* 11 x!0) (* 12 x!1) x!2) 22)))
          (a!77 (not (<= (+ (* 9 x!0) (* 12 x!1) x!2) 41)))
          (a!78 (not (<= (+ (* 7 x!0) (* 12 x!1) x!2) 56)))
          (a!79 (not (<= (+ (* 5 x!0) (* 12 x!1) x!2) 67)))
          (a!80 (not (<= (+ (* 3 x!0) (* 12 x!1) x!2) 74)))
          (a!81 (not (<= (+ x!0 (* 12 x!1) x!2) 77)))
          (a!82 (not (>= (+ x!0 (* (- 12) x!1) (* (- 1) x!2)) (- 76))))
          (a!83 (not (<= (+ x!0 (* (- 1) x!1)) (- 101))))
          (a!84 (not (<= (+ (* 100 x!0) x!2) (- 4908))))
          (a!85 (not (<= (+ x!0 (* (- 1) x!1)) (- 100))))
          (a!86 (not (<= (+ (* 99 x!0) x!2) (- 4824))))
          (a!87 (not (<= (+ x!0 (* (- 1) x!1)) (- 99))))
          (a!88 (not (<= (+ x!0 (* (- 1) x!1)) (- 96))))
          (a!89 (not (<= (+ (* 96 x!0) x!2) (- 4556))))
          (a!90 (not (<= (+ (* 97 x!0) x!2) (- 4650))))
          (a!91 (not (<= (+ x!0 (* (- 1) x!1)) (- 97))))
          (a!92 (not (<= (+ (* 98 x!0) x!2) (- 4743))))
          (a!93 (not (<= (+ x!0 (* (- 1) x!1)) (- 98))))
          (a!94 (not (<= (+ (* 95 x!0) x!2) (- 4461))))
          (a!95 (not (<= (+ x!0 (* (- 1) x!1)) (- 95))))
          (a!96 (not (<= (+ x!0 (* (- 1) x!1)) (- 94))))
          (a!97 (not (<= (+ (* 94 x!0) x!2) (- 4367))))
          (a!98 (not (<= (+ x!0 (* (- 1) x!1)) (- 93))))
          (a!99 (not (<= (+ (* 93 x!0) x!2) (- 4274))))
          (a!100 (not (<= (+ (* 92 x!0) x!2) (- 4182))))
          (a!101 (not (<= (+ x!0 (* (- 1) x!1)) (- 92))))
          (a!102 (not (<= (+ (* 91 x!0) x!2) (- 4091))))
          (a!103 (not (<= (+ x!0 (* (- 1) x!1)) (- 91))))
          (a!104 (not (<= (+ (* 90 x!0) x!2) (- 4004))))
          (a!105 (not (<= (+ x!0 (* (- 1) x!1)) (- 90))))
          (a!106 (not (<= (+ (* 89 x!0) x!2) (- 3917))))
          (a!107 (not (<= (+ x!0 (* (- 1) x!1)) (- 89))))
          (a!108 (not (<= (+ (* 88 x!0) x!2) (- 3829))))
          (a!109 (not (<= (+ x!0 (* (- 1) x!1)) (- 88))))
          (a!110 (not (<= (+ (* 87 x!0) x!2) (- 3742))))
          (a!111 (not (<= (+ x!0 (* (- 1) x!1)) (- 87))))
          (a!112 (not (<= (+ (* 85 x!0) x!2) (- 3571))))
          (a!113 (not (<= (+ x!0 (* (- 1) x!1)) (- 85))))
          (a!114 (not (<= (+ (* 86 x!0) x!2) (- 3656))))
          (a!115 (not (<= (+ x!0 (* (- 1) x!1)) (- 86))))
          (a!116 (not (<= (+ x!0 (* (- 1) x!1)) (- 84))))
          (a!117 (not (<= (+ (* 84 x!0) x!2) (- 3487))))
          (a!118 (not (<= (+ (* 83 x!0) x!2) (- 3404))))
          (a!119 (not (<= (+ x!0 (* (- 1) x!1)) (- 83))))
          (a!120 (not (<= (+ x!0 (* (- 1) x!1)) (- 82))))
          (a!121 (not (<= (+ (* 82 x!0) x!2) (- 3322))))
          (a!122 (not (<= (+ (* 81 x!0) x!2) (- 3241))))
          (a!123 (not (<= (+ x!0 (* (- 1) x!1)) (- 81))))
          (a!124 (not (<= (+ x!0 (* (- 1) x!1)) (- 80))))
          (a!125 (not (<= (+ (* 80 x!0) x!2) (- 3161))))
          (a!126 (not (<= (+ (* 77 x!0) x!2) (- 2927))))
          (a!127 (not (<= (+ x!0 (* (- 1) x!1)) (- 77))))
          (a!128 (not (<= (+ x!0 (* (- 1) x!1)) (- 78))))
          (a!129 (not (<= (+ (* 78 x!0) x!2) (- 3004))))
          (a!130 (not (<= (+ x!0 (* (- 1) x!1)) (- 79))))
          (a!131 (not (<= (+ (* 79 x!0) x!2) (- 3082))))
          (a!132 (not (<= (+ (* 76 x!0) x!2) (- 2851))))
          (a!133 (not (<= (+ x!0 (* (- 1) x!1)) (- 76))))
          (a!134 (not (<= (+ x!0 (* (- 1) x!1)) (- 75))))
          (a!135 (not (<= (+ (* 75 x!0) x!2) (- 2776))))
          (a!136 (not (<= (+ (* 72 x!0) x!2) (- 2557))))
          (a!137 (not (<= (+ x!0 (* (- 1) x!1)) (- 72))))
          (a!138 (not (<= (+ (* 74 x!0) x!2) (- 2702))))
          (a!139 (not (<= (+ x!0 (* (- 1) x!1)) (- 74))))
          (a!140 (not (<= (+ (* 73 x!0) x!2) (- 2629))))
          (a!141 (not (<= (+ x!0 (* (- 1) x!1)) (- 73))))
          (a!142 (not (<= (+ x!0 (* (- 1) x!1)) (- 71))))
          (a!143 (not (<= (+ (* 71 x!0) x!2) (- 2486))))
          (a!144 (not (<= (+ x!0 (* (- 1) x!1)) (- 69))))
          (a!145 (not (<= (+ (* 69 x!0) x!2) (- 2347))))
          (a!146 (not (<= (+ x!0 (* (- 1) x!1)) (- 70))))
          (a!147 (not (<= (+ (* 70 x!0) x!2) (- 2416))))
          (a!148 (not (<= (+ (* 68 x!0) x!2) (- 2279))))
          (a!149 (not (<= (+ x!0 (* (- 1) x!1)) (- 68))))
          (a!150 (not (<= (+ (* 67 x!0) x!2) (- 2212))))
          (a!151 (not (<= (+ x!0 (* (- 1) x!1)) (- 67))))
          (a!152 (not (<= (+ (* 66 x!0) x!2) (- 2146))))
          (a!153 (not (<= (+ x!0 (* (- 1) x!1)) (- 66))))
          (a!154 (not (<= (+ (* 65 x!0) x!2) (- 2081))))
          (a!155 (not (<= (+ x!0 (* (- 1) x!1)) (- 65))))
          (a!156 (not (<= (+ x!0 (* (- 1) x!1)) (- 64))))
          (a!157 (not (<= (+ (* 64 x!0) x!2) (- 2017))))
          (a!158 (not (<= (+ x!0 (* (- 1) x!1)) (- 63))))
          (a!159 (not (<= (+ (* 63 x!0) x!2) (- 1954))))
          (a!160 (not (<= (+ (* 62 x!0) x!2) (- 1892))))
          (a!161 (not (<= (+ x!0 (* (- 1) x!1)) (- 62))))
          (a!162 (not (<= (+ x!0 (* (- 1) x!1)) (- 60))))
          (a!163 (not (<= (+ (* 60 x!0) x!2) (- 1771))))
          (a!164 (not (<= (+ x!0 (* (- 1) x!1)) (- 61))))
          (a!165 (not (<= (+ (* 61 x!0) x!2) (- 1831))))
          (a!166 (not (<= (+ x!0 (* (- 1) x!1)) (- 59))))
          (a!167 (not (<= (+ (* 59 x!0) x!2) (- 1712))))
          (a!168 (not (<= (+ (* 58 x!0) x!2) (- 1654))))
          (a!169 (not (<= (+ x!0 (* (- 1) x!1)) (- 58))))
          (a!170 (not (<= (+ x!0 (* (- 1) x!1)) (- 56))))
          (a!171 (not (<= (+ (* 56 x!0) x!2) (- 1541))))
          (a!172 (not (<= (+ (* 57 x!0) x!2) (- 1597))))
          (a!173 (not (<= (+ x!0 (* (- 1) x!1)) (- 57))))
          (a!174 (not (<= (+ x!0 (* (- 1) x!1)) (- 55))))
          (a!175 (not (<= (+ (* 55 x!0) x!2) (- 1486))))
          (a!176 (not (<= (+ (* 54 x!0) x!2) (- 1432))))
          (a!177 (not (<= (+ x!0 (* (- 1) x!1)) (- 54))))
          (a!178 (not (<= (+ (* 53 x!0) x!2) (- 1379))))
          (a!179 (not (<= (+ x!0 (* (- 1) x!1)) (- 53))))
          (a!180 (not (<= (+ (* 52 x!0) x!2) (- 1327))))
          (a!181 (not (<= (+ x!0 (* (- 1) x!1)) (- 52))))
          (a!182 (not (<= (+ (* 51 x!0) x!2) (- 1276))))
          (a!183 (not (<= (+ x!0 (* (- 1) x!1)) (- 51))))
          (a!184 (not (<= (+ (* 48 x!0) x!2) (- 1129))))
          (a!185 (not (<= (+ x!0 (* (- 1) x!1)) (- 48))))
          (a!186 (not (<= (+ (* 50 x!0) x!2) (- 1226))))
          (a!187 (not (<= (+ x!0 (* (- 1) x!1)) (- 50))))
          (a!188 (not (<= (+ (* 49 x!0) x!2) (- 1177))))
          (a!189 (not (<= (+ x!0 (* (- 1) x!1)) (- 49))))
          (a!190 (not (<= (+ (* 46 x!0) x!2) (- 1036))))
          (a!191 (not (<= (+ x!0 (* (- 1) x!1)) (- 46))))
          (a!192 (not (<= (+ (* 47 x!0) x!2) (- 1082))))
          (a!193 (not (<= (+ x!0 (* (- 1) x!1)) (- 47))))
          (a!194 (not (<= (+ (* 44 x!0) x!2) (- 947))))
          (a!195 (not (<= (+ x!0 (* (- 1) x!1)) (- 44))))
          (a!196 (not (<= (+ (* 45 x!0) x!2) (- 991))))
          (a!197 (not (<= (+ x!0 (* (- 1) x!1)) (- 45))))
          (a!198 (not (<= (+ (* 43 x!0) x!2) (- 904))))
          (a!199 (not (<= (+ x!0 (* (- 1) x!1)) (- 43))))
          (a!200 (not (<= (+ x!0 (* (- 1) x!1)) (- 42))))
          (a!201 (not (<= (+ (* 42 x!0) x!2) (- 862))))
          (a!202 (not (<= (+ (* 41 x!0) x!2) (- 821))))
          (a!203 (not (<= (+ x!0 (* (- 1) x!1)) (- 41))))
          (a!204 (not (<= (+ x!0 (* (- 1) x!1)) (- 40))))
          (a!205 (not (<= (+ (* 40 x!0) x!2) (- 781))))
          (a!206 (not (<= (+ (* 39 x!0) x!2) (- 742))))
          (a!207 (not (<= (+ x!0 (* (- 1) x!1)) (- 39))))
          (a!208 (not (<= (+ x!0 (* (- 1) x!1)) (- 36))))
          (a!209 (not (<= (+ (* 36 x!0) x!2) (- 631))))
          (a!210 (not (<= (+ x!0 (* (- 1) x!1)) (- 38))))
          (a!211 (not (<= (+ (* 38 x!0) x!2) (- 704))))
          (a!212 (not (<= (+ x!0 (* (- 1) x!1)) (- 37))))
          (a!213 (not (<= (+ (* 37 x!0) x!2) (- 667))))
          (a!214 (not (<= (+ x!0 (* (- 1) x!1)) (- 35))))
          (a!215 (not (<= (+ (* 35 x!0) x!2) (- 596))))
          (a!216 (not (<= (+ x!0 (* (- 1) x!1)) (- 34))))
          (a!217 (not (<= (+ (* 34 x!0) x!2) (- 562))))
          (a!218 (not (<= (+ (* 33 x!0) x!2) (- 529))))
          (a!219 (not (<= (+ x!0 (* (- 1) x!1)) (- 33))))
          (a!220 (not (<= (+ (* 32 x!0) x!2) (- 497))))
          (a!221 (not (<= (+ x!0 (* (- 1) x!1)) (- 32))))
          (a!222 (not (<= (+ (* 31 x!0) x!2) (- 466))))
          (a!223 (not (<= (+ x!0 (* (- 1) x!1)) (- 31))))
          (a!224 (not (<= (+ (* 30 x!0) x!2) (- 436))))
          (a!225 (not (<= (+ x!0 (* (- 1) x!1)) (- 30))))
          (a!226 (not (<= (+ (* 28 x!0) x!2) (- 379))))
          (a!227 (not (<= (+ x!0 (* (- 1) x!1)) (- 28))))
          (a!228 (not (<= (+ x!0 (* (- 1) x!1)) (- 29))))
          (a!229 (not (<= (+ (* 29 x!0) x!2) (- 407))))
          (a!230 (not (<= (+ x!0 (* (- 1) x!1)) (- 27))))
          (a!231 (not (<= (+ (* 27 x!0) x!2) (- 352))))
          (a!232 (not (<= (+ (* 26 x!0) x!2) (- 326))))
          (a!233 (not (<= (+ x!0 (* (- 1) x!1)) (- 26)))))
    (let ((a!75 (or a!73 (not (<= (+ x!0 x!2) (- 1))) a!74)))
      (and (or a!1 a!2)
           (or (not (<= x!2 (- 1))) a!3)
           (or a!4 a!5 a!6)
           (or a!7 a!8 a!9)
           (or a!10 a!11 a!12)
           (or a!13 a!14 a!15)
           (or a!16 a!17 a!18)
           (or a!19 a!20 a!21)
           (or a!22 a!23 a!24)
           (or a!25 a!26 a!27)
           (or a!28 a!29 a!30)
           (or a!31 a!32 a!33)
           (or a!34 a!35 a!36)
           (or a!37 a!38 a!39)
           (or a!40 a!41 a!42)
           (or a!43 a!44 a!45)
           (or a!46 a!47 a!48)
           (or a!49 a!50 a!51)
           (or a!52 a!53 a!54)
           (or a!55 a!56 a!57)
           (or a!58 a!59 a!60)
           (or a!61 a!62 a!63)
           (or a!64 a!65 a!66)
           (or a!67 a!68 a!69)
           (or a!70 a!71 a!72)
           a!75
           (or a!7 a!76)
           (or a!13 a!77)
           (or a!78 a!21)
           (or a!25 a!79)
           (or a!31 a!80)
           (or a!81 a!39)
           (or a!82 a!44)
           a!83
           (or a!84 a!85)
           (or a!86 a!87)
           (or a!88 a!89)
           (or a!90 a!91)
           (or a!92 a!93)
           (or a!94 a!95)
           (or a!96 a!97)
           (or a!98 a!99)
           (or a!100 a!101)
           (or a!102 a!103)
           (or a!104 a!105)
           (or a!106 a!107)
           (or a!108 a!109)
           (or a!110 a!111)
           (or a!112 a!113)
           (or a!114 a!115)
           (or a!116 a!117)
           (or a!118 a!119)
           (or a!120 a!121)
           (or a!122 a!123)
           (or a!124 a!125)
           (or a!126 a!127)
           (or a!128 a!129)
           (or a!130 a!131)
           (or a!132 a!133)
           (or a!134 a!135)
           (or a!136 a!137)
           (or a!138 a!139)
           (or a!140 a!141)
           (or a!142 a!143)
           (or a!144 a!145)
           (or a!146 a!147)
           (or a!148 a!149)
           (or a!150 a!151)
           (or a!152 a!153)
           (or a!154 a!155)
           (or a!156 a!157)
           (or a!158 a!159)
           (or a!160 a!161)
           (or a!162 a!163)
           (or a!164 a!165)
           (or a!166 a!167)
           (or a!168 a!169)
           (or a!170 a!171)
           (or a!172 a!173)
           (or a!174 a!175)
           (or a!176 a!177)
           (or a!178 a!179)
           (or a!180 a!181)
           (or a!182 a!183)
           (or a!184 a!185)
           (or a!186 a!187)
           (or a!188 a!189)
           (or a!190 a!191)
           (or a!192 a!193)
           (or a!194 a!195)
           (or a!196 a!197)
           (or a!198 a!199)
           (or a!200 a!201)
           (or a!202 a!203)
           (or a!204 a!205)
           (or a!206 a!207)
           (or a!208 a!209)
           (or a!210 a!211)
           (or a!212 a!213)
           (or a!214 a!215)
           (or a!216 a!217)
           (or a!218 a!219)
           (or a!220 a!221)
           (or a!222 a!223)
           (or a!224 a!225)
           (or a!226 a!227)
           (or a!228 a!229)
           (or a!230 a!231)
           (or a!232 a!233)))))
)
